10
1 0 3
2 0 5
2 1 5
3 0 2
3 1 2
3 2 2
4 0 5
4 1 5
4 2 4
4 3 3
5 0 1
5 1 5
5 2 5
5 3 5
5 4 5
6 0 2
6 1 4
6 2 2
6 3 5
6 4 1
6 5 3
7 0 3
7 1 5
7 2 3
7 3 5
7 4 1
7 5 3
7 6 2
8 0 3
8 1 4
8 2 4
8 3 3
8 4 1
8 5 2
8 6 5
8 7 5
9 0 4
9 1 2
9 2 5
9 3 2
9 4 3
9 5 1
9 6 3
9 7 4
9 8 2
